
Log started (V11.0.0) Tue May 13 17:39:31 2008

Tried aggregator 1 time.
Reduced MIP has 120 rows, 2001 columns, and 4020 nonzeros.
Presolve time =    0.02 sec.
Clique table members: 100.
MIP emphasis: balance optimality and feasibility.
MIP search method: dynamic search.
Parallel mode: none, using 1 thread.
Root relaxation solution time =    0.03 sec.

        Nodes                                         Cuts/
   Node  Left     Objective  IInf  Best Integer     Best Node    ItCnt     Gap

*     0+    0                         5841.0000      130.1716      271   97.77%
*     0+    0                          174.0000      130.1716      271   25.19%
      0     0      131.0000    37      174.0000      Fract: 6      313   24.71%
*     0+    0                          172.0000      131.0000      313   23.84%
      0     0      131.1754    43      172.0000     Covers: 1      364   23.74%
*     0+    0                          159.0000      131.1754      364   17.50%
      0     0      134.1670    44      159.0000      Cuts: 17      487   15.62%
*     0+    0                          158.0000      134.1670      487   15.08%
      0     0      135.3000    48      158.0000    MIRcuts: 9      525   14.37%
*     0+    0                          154.0000      135.3000      525   12.14%
      0     0      135.5998    43      154.0000       Cuts: 8      584   11.95%
*     0+    0                          153.0000      135.5998      584   11.37%
      0     0      135.6106    50      153.0000      Cuts: 10      612   11.37%
*     0+    0                          147.0000      135.6106      612    7.75%
      0     0      135.7770    50      147.0000       Cuts: 4      631    7.63%
      0     0      136.2912    47      147.0000       Cuts: 6      651    7.28%
*     0+    0                          146.0000      136.2912      651    6.65%
      0     0      136.4585    52      146.0000       Cuts: 4      687    6.54%
      0     0      136.4638    56      146.0000       Cuts: 4      722    6.53%
      0     0      136.8142    55      146.0000       Cuts: 5      738    6.29%
      0     0      136.8314    53      146.0000    MIRcuts: 2      757    6.28%
      0     0      136.8433    53      146.0000     Covers: 2      766    6.27%
*     0+    0                          145.0000      136.8433      766    5.63%
      0     2      136.8433    53      145.0000      136.8433      766    5.63%
    100    92      139.0000    16      145.0000      137.0000     2199    5.52%
    200   171      143.0000    14      145.0000      137.0000     3759    5.52%
    300   246      142.7553    15      145.0000      137.0000     4657    5.52%
    400   299      138.0000    14      145.0000      137.0000     5518    5.52%
*   471+  244                          144.0000      139.8553     6844    2.88%
    500   253      143.0000    18      144.0000      140.5787     7124    2.38%
    600   222    infeasible            144.0000      140.5787     8986    2.38%
*   621+   99                          143.0000      141.0000     9288    1.40%

Clique cuts applied:  1
Cover cuts applied:  23
Mixed integer rounding cuts applied:  11
Gomory fractional cuts applied:  1

Solution pool: 12 solutions saved.

MIP - Integer optimal solution:  Objective = 1.4300000000e+002
Solution time =    6.27 sec.  Iterations = 9418  Nodes = 630 (84)


Incumbent solution
Variable Name           Solution Value
Cmax                        143.000000
X_1_9                         1.000000
X_2_3                         1.000000
X_3_5                         1.000000
X_4_11                        1.000000
X_5_7                         1.000000
X_6_4                         1.000000
X_7_9                         1.000000
X_8_14                        1.000000
X_9_4                         1.000000
X_10_4                        1.000000
X_11_12                       1.000000
X_12_3                        1.000000
X_13_6                        1.000000
X_14_4                        1.000000
X_15_8                        1.000000
X_16_11                       1.000000
X_17_18                       1.000000
X_18_15                       1.000000
X_19_9                        1.000000
X_20_10                       1.000000
X_21_4                        1.000000
X_22_12                       1.000000
X_23_5                        1.000000
X_24_11                       1.000000
X_25_3                        1.000000
X_26_4                        1.000000
X_27_18                       1.000000
X_28_19                       1.000000
X_29_19                       1.000000
X_30_7                        1.000000
X_31_7                        1.000000
X_32_2                        1.000000
X_33_20                       1.000000
X_34_4                        1.000000
X_35_10                       1.000000
X_36_20                       1.000000
X_37_1                        1.000000
X_38_3                        1.000000
X_39_7                        1.000000
X_40_7                        1.000000
X_41_11                       1.000000
X_42_4                        1.000000
X_43_16                       1.000000
X_44_9                        1.000000
X_45_9                        1.000000
X_46_5                        1.000000
X_47_12                       1.000000
X_48_4                        1.000000
X_49_4                        1.000000
X_50_4                        1.000000
X_51_4                        1.000000
X_52_5                        1.000000
X_53_3                        1.000000
X_54_4                        1.000000
X_55_9                        1.000000
X_56_19                       1.000000
X_57_5                        1.000000
X_58_8                        1.000000
X_59_3                        1.000000
X_60_4                        1.000000
X_61_3                        1.000000
X_62_4                        1.000000
X_63_7                        1.000000
X_64_10                       1.000000
X_65_6                        1.000000
X_66_4                        1.000000
X_67_3                        1.000000
X_68_11                       1.000000
X_69_4                        1.000000
X_70_13                       1.000000
X_71_4                        1.000000
X_72_3                        1.000000
X_73_9                        1.000000
X_74_7                        1.000000
X_75_16                       1.000000
X_76_9                        1.000000
X_77_18                       1.000000
X_78_4                        1.000000
X_79_17                       1.000000
X_80_15                       1.000000
X_81_11                       1.000000
X_82_4                        1.000000
X_83_18                       1.000000
X_84_9                        1.000000
X_85_4                        1.000000
X_86_14                       1.000000
X_87_3                        1.000000
X_88_4                        1.000000
X_89_3                        1.000000
X_90_7                        1.000000
X_91_17                       1.000000
X_92_4                        1.000000
X_93_13                       1.000000
X_94_3                        1.000000
X_95_7                        1.000000
X_96_16                       1.000000
X_97_7                        1.000000
X_98_2                        1.000000
X_99_3                        1.000000
X_100_11                      1.000000
All other variables in the range 1-2001 are 0.
